n=10;
hearts=91;
clubs=14;
spades=32;
diamonds=62;
blocked=13;
m=array2d(1..n, 1..n,[
	_,_,_,_,_,_,5,_,5,2,
	_,_,_,5,5,_,5,_,_,_,
	_,_,_,_,_,_,_,_,_,_,
	_,_,_,_,5,4,_,_,_,_,
	_,_,5,_,_,5,_,_,_,_,
	_,_,_,_,_,_,_,_,_,_,
	_,_,_,_,_,_,_,_,_,_,
	_,_,_,5,_,_,_,5,_,_,
	_,_,_,_,_,1,5,_,_,5,
	_,2,_,5,4,_,_,_,_,_
]);
